datasets/2-dimensional/CL_04_25_03.vbp
2
1000 1000 
25
157 178 30
58 160 72
69 94 4
72 112 88
151 98 54
139 134 64
70 55 90
176 194 26
143 183 94
151 157 28
136 149 72
80 91 49
167 118 54
180 112 19
102 158 28
116 87 61
157 85 84
57 83 23
149 66 67
68 66 53
95 167 54
116 53 16
62 56 9
68 110 54
166 198 77
