datasets/2-dimensional/CL_04_25_03.txt
1000 1000 
0 30 157 178 
1 72 58 160 
2 4 69 94 
3 88 72 112 
4 54 151 98 
5 64 139 134 
6 90 70 55 
7 26 176 194 
8 94 143 183 
9 28 151 157 
10 72 136 149 
11 49 80 91 
12 54 167 118 
13 19 180 112 
14 28 102 158 
15 61 116 87 
16 84 157 85 
17 23 57 83 
18 67 149 66 
19 53 68 66 
20 54 95 167 
21 16 116 53 
22 9 62 56 
23 54 68 110 
24 77 166 198 
